p cnf 65 160
c weights 1.0 1.0 2.718281828459045 0.36787944117144233 2.718281828459045 0.36787944117144233 1.0 1.0 2.718281828459045 0.36787944117144233 2.718281828459045 0.36787944117144233 1.0 1.0 2.718281828459045 0.36787944117144233 2.718281828459045 0.36787944117144233 1.0 1.0 2.718281828459045 0.36787944117144233 2.718281828459045 0.36787944117144233 1.0 1.0 2.718281828459045 0.36787944117144233 1.0 1.0 2.718281828459045 0.36787944117144233 2.718281828459045 0.36787944117144233 1.0 1.0 2.718281828459045 0.36787944117144233 2.718281828459045 0.36787944117144233 1.0 1.0 2.718281828459045 0.36787944117144233 2.718281828459045 0.36787944117144233 1.0 1.0 2.718281828459045 0.36787944117144233 2.718281828459045 0.36787944117144233 1.0 1.0 2.718281828459045 0.36787944117144233 1.0 1.0 2.718281828459045 0.36787944117144233 2.718281828459045 0.36787944117144233 1.0 1.0 2.718281828459045 0.36787944117144233 2.718281828459045 0.36787944117144233 1.0 1.0 2.718281828459045 0.36787944117144233 2.718281828459045 0.36787944117144233 1.0 1.0 2.718281828459045 0.36787944117144233 2.718281828459045 0.36787944117144233 1.0 1.0 2.718281828459045 0.36787944117144233 1.0 1.0 2.718281828459045 0.36787944117144233 2.718281828459045 0.36787944117144233 1.0 1.0 2.718281828459045 0.36787944117144233 2.718281828459045 0.36787944117144233 1.0 1.0 2.718281828459045 0.36787944117144233 2.718281828459045 0.36787944117144233 1.0 1.0 2.718281828459045 0.36787944117144233 2.718281828459045 0.36787944117144233 1.0 1.0 2.718281828459045 0.36787944117144233 1.0 1.0 2.718281828459045 0.36787944117144233 1.0 1.0 2.718281828459045 0.36787944117144233 1.0 1.0 2.718281828459045 0.36787944117144233 1.0 1.0 2.718281828459045 0.36787944117144233 1.0 1.0
2 1 4 0
2 -1 -4 0
-2 1 -4 0
-2 -1 4 0
3 1 15 0
3 -1 -15 0
-3 1 -15 0
-3 -1 15 0
5 4 7 0
5 -4 -7 0
-5 4 -7 0
-5 -4 7 0
6 4 18 0
6 -4 -18 0
-6 4 -18 0
-6 -4 18 0
8 7 10 0
8 -7 -10 0
-8 7 -10 0
-8 -7 10 0
9 7 21 0
9 -7 -21 0
-9 7 -21 0
-9 -7 21 0
11 10 13 0
11 -10 -13 0
-11 10 -13 0
-11 -10 13 0
12 10 24 0
12 -10 -24 0
-12 10 -24 0
-12 -10 24 0
14 13 27 0
14 -13 -27 0
-14 13 -27 0
-14 -13 27 0
16 15 18 0
16 -15 -18 0
-16 15 -18 0
-16 -15 18 0
17 15 29 0
17 -15 -29 0
-17 15 -29 0
-17 -15 29 0
19 18 21 0
19 -18 -21 0
-19 18 -21 0
-19 -18 21 0
20 18 32 0
20 -18 -32 0
-20 18 -32 0
-20 -18 32 0
22 21 24 0
22 -21 -24 0
-22 21 -24 0
-22 -21 24 0
23 21 35 0
23 -21 -35 0
-23 21 -35 0
-23 -21 35 0
25 24 27 0
25 -24 -27 0
-25 24 -27 0
-25 -24 27 0
26 24 38 0
26 -24 -38 0
-26 24 -38 0
-26 -24 38 0
28 27 41 0
28 -27 -41 0
-28 27 -41 0
-28 -27 41 0
30 29 32 0
30 -29 -32 0
-30 29 -32 0
-30 -29 32 0
31 29 43 0
31 -29 -43 0
-31 29 -43 0
-31 -29 43 0
33 32 35 0
33 -32 -35 0
-33 32 -35 0
-33 -32 35 0
34 32 46 0
34 -32 -46 0
-34 32 -46 0
-34 -32 46 0
36 35 38 0
36 -35 -38 0
-36 35 -38 0
-36 -35 38 0
37 35 49 0
37 -35 -49 0
-37 35 -49 0
-37 -35 49 0
39 38 41 0
39 -38 -41 0
-39 38 -41 0
-39 -38 41 0
40 38 52 0
40 -38 -52 0
-40 38 -52 0
-40 -38 52 0
42 41 55 0
42 -41 -55 0
-42 41 -55 0
-42 -41 55 0
44 43 46 0
44 -43 -46 0
-44 43 -46 0
-44 -43 46 0
45 43 57 0
45 -43 -57 0
-45 43 -57 0
-45 -43 57 0
47 46 49 0
47 -46 -49 0
-47 46 -49 0
-47 -46 49 0
48 46 59 0
48 -46 -59 0
-48 46 -59 0
-48 -46 59 0
50 49 52 0
50 -49 -52 0
-50 49 -52 0
-50 -49 52 0
51 49 61 0
51 -49 -61 0
-51 49 -61 0
-51 -49 61 0
53 52 55 0
53 -52 -55 0
-53 52 -55 0
-53 -52 55 0
54 52 63 0
54 -52 -63 0
-54 52 -63 0
-54 -52 63 0
56 55 65 0
56 -55 -65 0
-56 55 -65 0
-56 -55 65 0
58 57 59 0
58 -57 -59 0
-58 57 -59 0
-58 -57 59 0
60 59 61 0
60 -59 -61 0
-60 59 -61 0
-60 -59 61 0
62 61 63 0
62 -61 -63 0
-62 61 -63 0
-62 -61 63 0
64 63 65 0
64 -63 -65 0
-64 63 -65 0
-64 -63 65 0
